% seed = 1012626

mint = 63;
% maxt = 223;

nActs = 42;
dur = [0,1,8,2,6,4,2,2,1,2,10,9,4,3,9,9,8,8,2,2,10,3,8,4,5,4,10,8,9,4,7,7,5,9,9,7,7,6,1,2,6,0];

nSkills = 4;
sreq = [| 0,0,0,0,
	| 0,2,3,2,
	| 2,6,0,4,
	| 4,2,0,4,
	| 2,0,4,5,
	| 5,2,4,0,
	| 6,4,4,0,
	| 2,5,3,0,
	| 5,7,0,7,
	| 1,7,0,7,
	| 4,0,5,3,
	| 0,4,6,3,
	| 6,0,4,3,
	| 0,6,6,5,
	| 6,0,7,5,
	| 7,3,0,1,
	| 3,6,4,0,
	| 3,4,0,1,
	| 4,0,2,3,
	| 3,6,0,7,
	| 0,4,3,4,
	| 5,4,0,3,
	| 3,0,4,2,
	| 2,0,5,2,
	| 4,7,7,0,
	| 0,4,3,2,
	| 2,4,2,0,
	| 2,0,5,1,
	| 7,3,4,0,
	| 4,0,4,3,
	| 6,6,3,0,
	| 4,0,7,5,
	| 0,3,2,3,
	| 0,4,7,5,
	| 3,6,2,0,
	| 5,7,3,0,
	| 0,4,3,3,
	| 5,2,0,4,
	| 4,2,5,0,
	| 4,0,2,2,
	| 5,4,0,2,
	| 0,0,0,0, |];

nResources = 30;
mastery = [| false,true,true,true,
	| false,false,true,false,
	| false,false,true,true,
	| true,true,false,false,
	| false,true,true,true,
	| false,false,true,false,
	| true,false,true,true,
	| true,true,false,false,
	| false,true,true,true,
	| false,true,false,true,
	| false,true,false,true,
	| false,false,true,false,
	| true,true,false,false,
	| true,true,true,false,
	| false,true,true,false,
	| false,true,false,false,
	| true,true,true,false,
	| true,false,true,false,
	| true,false,false,true,
	| true,false,false,false,
	| false,false,true,false,
	| true,false,false,true,
	| false,false,true,false,
	| false,true,false,true,
	| false,false,false,true,
	| true,false,true,true,
	| false,true,true,true,
	| true,true,true,false,
	| false,false,false,true,
	| false,false,false,true, |];

nPrecs = 73;
pred = [1,1,1,2,2,2,3,3,3,4,4,5,5,5,6,6,7,8,8,8,9,10,10,10,11,11,12,12,13,13,13,14,14,14,15,15,15,16,17,17,17,18,19,20,20,21,22,23,23,24,24,24,25,25,25,26,26,27,28,29,29,30,31,32,33,34,35,36,37,38,39,40,41];
succ = [2,3,4,11,5,6,9,10,7,27,23,12,23,8,33,19,14,26,35,29,13,18,29,24,41,13,20,31,25,28,15,18,20,21,24,29,16,17,33,22,30,39,26,41,38,36,35,33,31,40,37,32,27,36,37,41,32,28,38,34,40,34,35,38,34,37,36,40,39,39,42,42,42];

nUnrels = 479;
unpred = [2,2,2,2,2,2,2,2,3,3,3,3,3,3,3,3,3,3,4,4,4,4,4,4,4,4,4,4,4,4,4,4,4,4,4,4,4,4,4,4,4,4,4,5,5,5,5,5,5,5,5,5,5,5,5,5,5,5,5,5,5,5,6,6,6,6,6,6,6,6,6,6,6,6,6,6,6,6,6,6,6,6,6,6,6,6,6,6,7,7,7,7,7,7,7,7,7,7,7,7,7,7,7,7,7,7,7,7,7,7,7,7,7,8,8,8,8,8,8,8,8,8,8,8,8,8,8,8,8,8,8,8,8,8,8,9,9,9,9,9,9,9,9,9,9,9,9,10,10,10,10,10,10,10,10,10,10,10,10,10,10,10,10,10,10,10,10,10,10,11,11,11,11,11,11,11,11,11,12,12,12,12,12,12,12,12,12,12,12,12,12,12,12,12,12,12,12,12,12,13,13,13,13,13,13,13,13,13,14,14,14,14,14,14,14,14,14,14,14,14,14,14,14,14,14,14,14,15,15,15,15,15,15,15,15,15,15,15,16,16,16,16,16,16,16,16,16,16,16,16,16,16,16,17,17,17,17,17,17,17,17,17,17,17,17,17,17,17,18,18,18,18,18,18,18,18,18,18,18,18,18,18,18,18,18,18,18,18,18,18,19,19,19,19,19,19,19,19,19,19,19,19,19,19,19,19,19,20,20,20,20,20,20,20,20,20,20,20,20,20,20,20,20,20,20,21,21,21,21,21,21,21,21,21,21,21,21,21,21,21,21,21,21,22,22,22,22,22,22,22,22,22,22,22,22,22,22,22,22,23,23,23,23,23,23,23,23,23,23,24,24,24,24,24,24,24,24,24,24,24,24,25,25,25,25,25,25,25,25,25,26,26,26,26,26,26,26,26,26,26,26,27,27,27,27,27,27,27,27,27,27,27,28,28,28,28,28,28,28,28,28,28,28,29,29,29,29,29,29,29,29,30,30,30,30,30,30,30,30,31,31,31,31,31,31,31,32,32,32,32,32,32,32,33,33,33,33,33,34,34,34,34,34,35,35,35,35,36,36,36,36,37,37,37,38,38,39,39,40];
unsucc = [3,4,7,9,10,14,18,21,4,5,6,8,11,12,19,23,26,31,5,6,7,8,9,10,11,12,13,14,15,16,17,18,19,20,21,22,24,25,26,29,30,32,41,6,7,9,10,11,13,14,15,16,17,18,19,21,22,24,25,27,28,30,7,8,9,10,11,12,13,14,15,16,17,18,20,21,22,23,24,25,27,28,29,30,31,35,36,40,8,9,10,11,12,13,15,16,17,19,22,23,24,25,26,27,28,29,30,31,32,33,34,35,37,9,10,11,12,13,14,15,16,17,18,19,20,21,22,23,24,25,27,28,30,31,33,10,11,12,14,18,19,20,21,23,26,31,41,11,12,13,14,15,16,17,19,20,21,22,23,25,26,27,28,30,31,33,35,36,41,12,14,18,19,20,21,23,26,31,13,14,15,16,17,18,19,21,22,23,24,25,26,27,28,29,30,32,33,34,37,14,18,19,20,21,23,26,31,41,15,16,17,19,22,23,24,25,26,27,28,29,30,31,32,33,34,35,37,18,19,20,21,23,25,26,27,28,31,41,18,19,20,21,23,24,25,26,27,28,29,31,32,38,41,18,19,20,21,23,24,25,26,27,28,29,31,32,38,41,19,20,21,22,23,24,25,26,27,28,29,30,31,32,33,34,35,36,37,38,40,41,20,21,22,23,24,25,27,28,29,30,31,33,34,35,36,37,40,21,22,23,24,25,26,27,28,29,30,31,32,33,34,35,36,37,40,22,23,24,25,26,27,28,29,30,31,32,33,34,35,37,38,39,41,23,24,25,26,27,28,29,30,31,32,33,34,37,38,39,41,24,25,26,27,28,29,30,32,38,41,25,26,27,28,29,30,31,33,34,35,36,41,26,29,30,31,32,33,34,35,41,27,28,29,30,31,33,34,35,36,37,40,29,30,31,32,33,34,35,36,37,40,41,29,30,31,32,33,34,35,36,37,40,41,30,31,32,33,35,36,38,41,31,32,33,35,36,38,40,41,32,33,34,37,38,39,41,33,34,35,36,37,40,41,35,36,38,40,41,35,36,38,40,41,37,38,39,41,37,38,39,41,38,40,41,40,41,40,41,41];

USEFUL_RES = [{},
	{1,2,3,4,5,6,7,8,9,10,11,12,13,14,15,16,17,18,19,21,22,23,24,25,26,27,28,29,30},
	{1,3,4,5,7,8,9,10,11,13,14,15,16,17,18,19,20,22,24,25,26,27,28,29,30},
	{1,3,4,5,7,8,9,10,11,13,14,15,16,17,18,19,20,22,24,25,26,27,28,29,30},
	{1,2,3,4,5,6,7,8,9,10,11,12,13,14,15,17,18,19,20,21,22,23,24,25,26,27,28,29,30},
	{1,2,3,4,5,6,7,8,9,10,11,12,13,14,15,16,17,18,19,20,21,22,23,24,26,27,28},
	{1,2,3,4,5,6,7,8,9,10,11,12,13,14,15,16,17,18,19,20,21,22,23,24,26,27,28},
	{1,2,3,4,5,6,7,8,9,10,11,12,13,14,15,16,17,18,19,20,21,22,23,24,26,27,28},
	{1,3,4,5,7,8,9,10,11,13,14,15,16,17,18,19,20,22,24,25,26,27,28,29,30},
	{1,3,4,5,7,8,9,10,11,13,14,15,16,17,18,19,20,22,24,25,26,27,28,29,30},
	{1,2,3,4,5,6,7,8,9,10,11,12,13,14,15,17,18,19,20,21,22,23,24,25,26,27,28,29,30},
	{1,2,3,4,5,6,7,8,9,10,11,12,13,14,15,16,17,18,19,21,22,23,24,25,26,27,28,29,30},
	{1,2,3,4,5,6,7,8,9,10,11,12,13,14,15,17,18,19,20,21,22,23,24,25,26,27,28,29,30},
	{1,2,3,4,5,6,7,8,9,10,11,12,13,14,15,16,17,18,19,21,22,23,24,25,26,27,28,29,30},
	{1,2,3,4,5,6,7,8,9,10,11,12,13,14,15,17,18,19,20,21,22,23,24,25,26,27,28,29,30},
	{1,3,4,5,7,8,9,10,11,13,14,15,16,17,18,19,20,22,24,25,26,27,28,29,30},
	{1,2,3,4,5,6,7,8,9,10,11,12,13,14,15,16,17,18,19,20,21,22,23,24,26,27,28},
	{1,3,4,5,7,8,9,10,11,13,14,15,16,17,18,19,20,22,24,25,26,27,28,29,30},
	{1,2,3,4,5,6,7,8,9,10,11,12,13,14,15,17,18,19,20,21,22,23,24,25,26,27,28,29,30},
	{1,3,4,5,7,8,9,10,11,13,14,15,16,17,18,19,20,22,24,25,26,27,28,29,30},
	{1,2,3,4,5,6,7,8,9,10,11,12,13,14,15,16,17,18,19,21,22,23,24,25,26,27,28,29,30},
	{1,3,4,5,7,8,9,10,11,13,14,15,16,17,18,19,20,22,24,25,26,27,28,29,30},
	{1,2,3,4,5,6,7,8,9,10,11,12,13,14,15,17,18,19,20,21,22,23,24,25,26,27,28,29,30},
	{1,2,3,4,5,6,7,8,9,10,11,12,13,14,15,17,18,19,20,21,22,23,24,25,26,27,28,29,30},
	{1,2,3,4,5,6,7,8,9,10,11,12,13,14,15,16,17,18,19,20,21,22,23,24,26,27,28},
	{1,2,3,4,5,6,7,8,9,10,11,12,13,14,15,16,17,18,19,21,22,23,24,25,26,27,28,29,30},
	{1,2,3,4,5,6,7,8,9,10,11,12,13,14,15,16,17,18,19,20,21,22,23,24,26,27,28},
	{1,2,3,4,5,6,7,8,9,10,11,12,13,14,15,17,18,19,20,21,22,23,24,25,26,27,28,29,30},
	{1,2,3,4,5,6,7,8,9,10,11,12,13,14,15,16,17,18,19,20,21,22,23,24,26,27,28},
	{1,2,3,4,5,6,7,8,9,10,11,12,13,14,15,17,18,19,20,21,22,23,24,25,26,27,28,29,30},
	{1,2,3,4,5,6,7,8,9,10,11,12,13,14,15,16,17,18,19,20,21,22,23,24,26,27,28},
	{1,2,3,4,5,6,7,8,9,10,11,12,13,14,15,17,18,19,20,21,22,23,24,25,26,27,28,29,30},
	{1,2,3,4,5,6,7,8,9,10,11,12,13,14,15,16,17,18,19,21,22,23,24,25,26,27,28,29,30},
	{1,2,3,4,5,6,7,8,9,10,11,12,13,14,15,16,17,18,19,21,22,23,24,25,26,27,28,29,30},
	{1,2,3,4,5,6,7,8,9,10,11,12,13,14,15,16,17,18,19,20,21,22,23,24,26,27,28},
	{1,2,3,4,5,6,7,8,9,10,11,12,13,14,15,16,17,18,19,20,21,22,23,24,26,27,28},
	{1,2,3,4,5,6,7,8,9,10,11,12,13,14,15,16,17,18,19,21,22,23,24,25,26,27,28,29,30},
	{1,3,4,5,7,8,9,10,11,13,14,15,16,17,18,19,20,22,24,25,26,27,28,29,30},
	{1,2,3,4,5,6,7,8,9,10,11,12,13,14,15,16,17,18,19,20,21,22,23,24,26,27,28},
	{1,2,3,4,5,6,7,8,9,10,11,12,13,14,15,17,18,19,20,21,22,23,24,25,26,27,28,29,30},
	{1,3,4,5,7,8,9,10,11,13,14,15,16,17,18,19,20,22,24,25,26,27,28,29,30},
	{}];

POTENTIAL_ACT = [{2,3,4,5,6,7,8,9,10,11,12,13,14,15,16,17,18,19,20,21,22,23,24,25,26,27,28,29,30,31,32,33,34,35,36,37,38,39,40,41},
	{2,5,6,7,8,11,12,13,14,15,17,19,21,23,24,25,26,27,28,29,30,31,32,33,34,35,36,37,39,40},
	{2,3,4,5,6,7,8,9,10,11,12,13,14,15,16,17,18,19,20,21,22,23,24,25,26,27,28,29,30,31,32,33,34,35,36,37,38,39,40,41},
	{2,3,4,5,6,7,8,9,10,11,12,13,14,15,16,17,18,19,20,21,22,23,24,25,26,27,28,29,30,31,32,33,34,35,36,37,38,39,40,41},
	{2,3,4,5,6,7,8,9,10,11,12,13,14,15,16,17,18,19,20,21,22,23,24,25,26,27,28,29,30,31,32,33,34,35,36,37,38,39,40,41},
	{2,5,6,7,8,11,12,13,14,15,17,19,21,23,24,25,26,27,28,29,30,31,32,33,34,35,36,37,39,40},
	{2,3,4,5,6,7,8,9,10,11,12,13,14,15,16,17,18,19,20,21,22,23,24,25,26,27,28,29,30,31,32,33,34,35,36,37,38,39,40,41},
	{2,3,4,5,6,7,8,9,10,11,12,13,14,15,16,17,18,19,20,21,22,23,24,25,26,27,28,29,30,31,32,33,34,35,36,37,38,39,40,41},
	{2,3,4,5,6,7,8,9,10,11,12,13,14,15,16,17,18,19,20,21,22,23,24,25,26,27,28,29,30,31,32,33,34,35,36,37,38,39,40,41},
	{2,3,4,5,6,7,8,9,10,11,12,13,14,15,16,17,18,19,20,21,22,23,24,25,26,27,28,29,30,31,32,33,34,35,36,37,38,39,40,41},
	{2,3,4,5,6,7,8,9,10,11,12,13,14,15,16,17,18,19,20,21,22,23,24,25,26,27,28,29,30,31,32,33,34,35,36,37,38,39,40,41},
	{2,5,6,7,8,11,12,13,14,15,17,19,21,23,24,25,26,27,28,29,30,31,32,33,34,35,36,37,39,40},
	{2,3,4,5,6,7,8,9,10,11,12,13,14,15,16,17,18,19,20,21,22,23,24,25,26,27,28,29,30,31,32,33,34,35,36,37,38,39,40,41},
	{2,3,4,5,6,7,8,9,10,11,12,13,14,15,16,17,18,19,20,21,22,23,24,25,26,27,28,29,30,31,32,33,34,35,36,37,38,39,40,41},
	{2,3,4,5,6,7,8,9,10,11,12,13,14,15,16,17,18,19,20,21,22,23,24,25,26,27,28,29,30,31,32,33,34,35,36,37,38,39,40,41},
	{2,3,4,6,7,8,9,10,12,14,16,17,18,20,21,22,25,26,27,29,31,33,34,35,36,37,38,39,41},
	{2,3,4,5,6,7,8,9,10,11,12,13,14,15,16,17,18,19,20,21,22,23,24,25,26,27,28,29,30,31,32,33,34,35,36,37,38,39,40,41},
	{2,3,4,5,6,7,8,9,10,11,12,13,14,15,16,17,18,19,20,21,22,23,24,25,26,27,28,29,30,31,32,33,34,35,36,37,38,39,40,41},
	{2,3,4,5,6,7,8,9,10,11,12,13,14,15,16,17,18,19,20,21,22,23,24,25,26,27,28,29,30,31,32,33,34,35,36,37,38,39,40,41},
	{3,4,5,6,7,8,9,10,11,13,15,16,17,18,19,20,22,23,24,25,27,28,29,30,31,32,35,36,38,39,40,41},
	{2,5,6,7,8,11,12,13,14,15,17,19,21,23,24,25,26,27,28,29,30,31,32,33,34,35,36,37,39,40},
	{2,3,4,5,6,7,8,9,10,11,12,13,14,15,16,17,18,19,20,21,22,23,24,25,26,27,28,29,30,31,32,33,34,35,36,37,38,39,40,41},
	{2,5,6,7,8,11,12,13,14,15,17,19,21,23,24,25,26,27,28,29,30,31,32,33,34,35,36,37,39,40},
	{2,3,4,5,6,7,8,9,10,11,12,13,14,15,16,17,18,19,20,21,22,23,24,25,26,27,28,29,30,31,32,33,34,35,36,37,38,39,40,41},
	{2,3,4,5,9,10,11,12,13,14,15,16,18,19,20,21,22,23,24,26,28,30,32,33,34,37,38,40,41},
	{2,3,4,5,6,7,8,9,10,11,12,13,14,15,16,17,18,19,20,21,22,23,24,25,26,27,28,29,30,31,32,33,34,35,36,37,38,39,40,41},
	{2,3,4,5,6,7,8,9,10,11,12,13,14,15,16,17,18,19,20,21,22,23,24,25,26,27,28,29,30,31,32,33,34,35,36,37,38,39,40,41},
	{2,3,4,5,6,7,8,9,10,11,12,13,14,15,16,17,18,19,20,21,22,23,24,25,26,27,28,29,30,31,32,33,34,35,36,37,38,39,40,41},
	{2,3,4,5,9,10,11,12,13,14,15,16,18,19,20,21,22,23,24,26,28,30,32,33,34,37,38,40,41},
	{2,3,4,5,9,10,11,12,13,14,15,16,18,19,20,21,22,23,24,26,28,30,32,33,34,37,38,40,41}];
